U_400_10.txt

VEHICLE     CAPACITY  LOCATIONS  CUSTOMER  OPTIONS  PRIORITIES  NUMTYPS
10		150		481		400		800		3		4

CUSTOMER  DEMAND
0	 12
1	 19
2	 19
3	 11
4	 10
5	 10
6	 13
7	 18
8	 18
9	 11
10	 10
11	 18
12	 12
13	 15
14	 20
15	 15
16	 18
17	 15
18	 17
19	 10
20	 10
21	 14
22	 12
23	 15
24	 11
25	 18
26	 15
27	 13
28	 15
29	 20
30	 19
31	 19
32	 20
33	 20
34	 11
35	 14
36	 10
37	 13
38	 19
39	 17
40	 12
41	 12
42	 19
43	 11
44	 10
45	 10
46	 13
47	 14
48	 15
49	 10
50	 18
51	 12
52	 11
53	 20
54	 18
55	 14
56	 20
57	 19
58	 10
59	 17
60	 20
61	 20
62	 19
63	 11
64	 19
65	 19
66	 19
67	 11
68	 14
69	 19
70	 12
71	 14
72	 20
73	 16
74	 13
75	 19
76	 12
77	 12
78	 17
79	 18
80	 18
81	 16
82	 13
83	 18
84	 10
85	 19
86	 20
87	 18
88	 10
89	 13
90	 15
91	 20
92	 19
93	 10
94	 14
95	 18
96	 13
97	 12
98	 18
99	 12
100	 19
101	 10
102	 17
103	 18
104	 13
105	 11
106	 20
107	 14
108	 20
109	 19
110	 14
111	 12
112	 18
113	 18
114	 11
115	 20
116	 10
117	 19
118	 17
119	 11
120	 15
121	 16
122	 13
123	 12
124	 10
125	 11
126	 17
127	 11
128	 13
129	 12
130	 20
131	 19
132	 12
133	 18
134	 13
135	 16
136	 18
137	 16
138	 17
139	 10
140	 18
141	 11
142	 10
143	 20
144	 18
145	 20
146	 17
147	 17
148	 10
149	 13
150	 10
151	 11
152	 20
153	 16
154	 12
155	 20
156	 19
157	 20
158	 15
159	 18
160	 13
161	 13
162	 17
163	 20
164	 11
165	 13
166	 11
167	 19
168	 20
169	 12
170	 12
171	 14
172	 19
173	 14
174	 10
175	 13
176	 17
177	 17
178	 20
179	 10
180	 13
181	 18
182	 17
183	 16
184	 19
185	 16
186	 11
187	 13
188	 17
189	 20
190	 14
191	 20
192	 17
193	 14
194	 18
195	 14
196	 13
197	 17
198	 19
199	 14
200	 12
201	 20
202	 18
203	 20
204	 20
205	 12
206	 15
207	 14
208	 17
209	 17
210	 19
211	 15
212	 12
213	 16
214	 13
215	 14
216	 17
217	 13
218	 11
219	 17
220	 10
221	 15
222	 10
223	 15
224	 20
225	 12
226	 17
227	 19
228	 15
229	 19
230	 19
231	 13
232	 20
233	 12
234	 11
235	 19
236	 15
237	 11
238	 13
239	 15
240	 19
241	 19
242	 12
243	 20
244	 19
245	 20
246	 20
247	 11
248	 15
249	 15
250	 18
251	 14
252	 11
253	 10
254	 16
255	 20
256	 10
257	 15
258	 19
259	 11
260	 17
261	 14
262	 10
263	 12
264	 18
265	 10
266	 13
267	 13
268	 17
269	 13
270	 15
271	 16
272	 18
273	 16
274	 20
275	 16
276	 13
277	 20
278	 19
279	 20
280	 12
281	 11
282	 20
283	 14
284	 11
285	 15
286	 12
287	 18
288	 14
289	 11
290	 15
291	 12
292	 14
293	 20
294	 10
295	 13
296	 10
297	 16
298	 20
299	 13
300	 17
301	 20
302	 12
303	 15
304	 12
305	 16
306	 14
307	 18
308	 19
309	 10
310	 18
311	 12
312	 10
313	 17
314	 16
315	 15
316	 20
317	 11
318	 11
319	 15
320	 20
321	 18
322	 13
323	 14
324	 17
325	 16
326	 13
327	 13
328	 13
329	 13
330	 11
331	 16
332	 10
333	 19
334	 12
335	 10
336	 10
337	 13
338	 19
339	 16
340	 16
341	 10
342	 17
343	 20
344	 12
345	 18
346	 20
347	 10
348	 13
349	 15
350	 10
351	 18
352	 12
353	 17
354	 11
355	 11
356	 19
357	 14
358	 13
359	 12
360	 15
361	 11
362	 20
363	 13
364	 15
365	 17
366	 16
367	 11
368	 15
369	 18
370	 16
371	 19
372	 18
373	 16
374	 15
375	 12
376	 16
377	 17
378	 13
379	 15
380	 18
381	 19
382	 10
383	 11
384	 18
385	 10
386	 16
387	 18
388	 13
389	 15
390	 14
391	 20
392	 19
393	 10
394	 10
395	 18
396	 13
397	 10
398	 14
399	 20

LOCATION  XCOORD  YCOORD  CAP  READY  DUE  TYP  SERVICETIME
0		13		12		-1		0		720	 0		0
1		40		39		-1		391		511		 2		6
2		36		5		-1		26		266		 2		6
3		24		1		-1		181		301		 2		6
4		42		31		-1		0		360		 2		6
5		44		11		-1		455		575		 2		6
6		29		35		-1		360		720		 2		6
7		28		17		-1		9		129		 2		6
8		43		18		-1		360		720		 2		6
9		23		40		-1		0		360		 2		6
10		4		37		-1		129		369		 2		6
11		14		10		-1		542		662		 2		6
12		30		30		-1		203		323		 2		6
13		13		20		-1		360		720		 2		6
14		37		34		-1		0		360		 2		6
15		8		5		-1		360		720		 2		6
16		39		23		-1		360		720		 2		6
17		36		3		-1		0		360		 2		6
18		22		41		-1		423		543		 2		6
19		37		21		-1		360		720		 2		6
20		31		50		-1		0		360		 2		6
21		44		19		-1		360		720		 2		6
22		5		8		-1		360		720		 2		6
23		30		50		-1		568		688		 2		6
24		25		17		-1		368		488		 2		6
25		4		32		-1		231		351		 2		6
26		17		16		-1		0		360		 2		6
27		33		15		-1		443		683		 2		6
28		20		6		-1		360		720		 2		6
29		50		22		-1		454		574		 2		6
30		36		44		-1		220		340		 2		6
31		19		3		-1		360		720		 2		6
32		7		17		-1		449		569		 2		6
33		38		50		-1		489		609		 2		6
34		42		18		-1		0		360		 2		6
35		16		50		-1		495		615		 2		6
36		35		24		-1		508		628		 2		6
37		45		12		-1		131		251		 2		6
38		30		33		-1		360		720		 2		6
39		44		48		-1		9		129		 2		6
40		15		6		-1		0		360		 2		6
41		32		1		-1		80		200		 2		6
42		1		36		-1		106		226		 2		6
43		36		25		-1		539		659		 2		6
44		19		6		-1		27		267		 2		6
45		17		17		-1		151		391		 2		6
46		1		7		-1		7		127		 2		6
47		50		19		-1		520		640		 2		6
48		39		41		-1		576		696		 2		6
49		31		41		-1		0		360		 2		6
50		45		10		-1		360		720		 2		6
51		34		31		-1		0		360		 2		6
52		29		15		-1		488		608		 2		6
53		24		32		-1		360		720		 2		6
54		44		30		-1		0		360		 2		6
55		19		26		-1		0		360		 2		6
56		31		37		-1		0		360		 2		6
57		10		48		-1		126		246		 2		6
58		28		39		-1		49		169		 2		6
59		2		24		-1		498		618		 2		6
60		18		22		-1		211		451		 2		6
61		19		1		-1		507		627		 2		6
62		38		22		-1		0		360		 2		6
63		50		28		-1		516		636		 2		6
64		15		8		-1		121		241		 2		6
65		31		19		-1		360		720		 2		6
66		29		1		-1		0		360		 2		6
67		9		24		-1		220		340		 2		6
68		37		45		-1		427		667		 2		6
69		5		31		-1		539		659		 2		6
70		33		44		-1		223		463		 2		6
71		30		44		-1		360		720		 2		6
72		30		35		-1		254		494		 2		6
73		22		48		-1		575		695		 2		6
74		28		46		-1		478		598		 2		6
75		28		37		-1		367		607		 2		6
76		14		50		-1		539		659		 2		6
77		48		34		-1		233		353		 2		6
78		7		48		-1		0		360		 2		6
79		31		35		-1		360		720		 2		6
80		44		24		-1		317		557		 2		6
81		17		43		-1		537		657		 2		6
82		16		8		-1		360		720		 2		6
83		46		6		-1		30		150		 2		6
84		47		25		-1		484		604		 2		6
85		46		34		-1		432		672		 2		6
86		16		36		-1		194		314		 2		6
87		16		10		-1		360		720		 2		6
88		16		1		-1		360		720		 2		6
89		20		23		-1		453		573		 2		6
90		20		31		-1		128		368		 2		6
91		25		24		-1		37		277		 2		6
92		6		39		-1		420		540		 2		6
93		1		8		-1		101		221		 2		6
94		6		13		-1		420		660		 2		6
95		25		11		-1		360		720		 2		6
96		23		12		-1		98		218		 2		6
97		45		48		-1		360		720		 2		6
98		14		4		-1		37		157		 2		6
99		36		27		-1		360		720		 2		6
100		39		33		-1		360		720		 2		6
101		40		3		-1		116		356		 2		6
102		16		5		-1		392		512		 2		6
103		4		44		-1		122		242		 2		6
104		25		17		-1		80		200		 2		6
105		30		37		-1		360		720		 2		6
106		49		49		-1		104		224		 2		6
107		35		50		-1		457		577		 2		6
108		39		42		-1		382		622		 2		6
109		49		10		-1		333		573		 2		6
110		50		37		-1		0		360		 2		6
111		17		46		-1		360		720		 2		6
112		34		17		-1		221		461		 2		6
113		10		32		-1		0		360		 2		6
114		9		49		-1		173		293		 2		6
115		47		36		-1		559		679		 2		6
116		44		43		-1		360		720		 2		6
117		17		19		-1		360		720		 2		6
118		41		9		-1		0		360		 2		6
119		26		10		-1		360		720		 2		6
120		44		47		-1		418		538		 2		6
121		29		30		-1		123		363		 2		6
122		8		36		-1		37		157		 2		6
123		43		28		-1		0		360		 2		6
124		26		28		-1		0		360		 2		6
125		9		1		-1		403		523		 2		6
126		41		12		-1		0		360		 2		6
127		21		10		-1		0		360		 2		6
128		6		37		-1		49		169		 2		6
129		3		46		-1		0		360		 2		6
130		1		6		-1		360		720		 2		6
131		25		22		-1		58		178		 2		6
132		34		44		-1		88		208		 2		6
133		27		8		-1		95		215		 2		6
134		49		2		-1		360		720		 2		6
135		24		18		-1		573		693		 2		6
136		40		48		-1		360		720		 2		6
137		25		14		-1		534		654		 2		6
138		29		41		-1		360		720		 2		6
139		50		20		-1		473		713		 2		6
140		21		17		-1		368		488		 2		6
141		33		39		-1		0		360		 2		6
142		44		34		-1		360		720		 2		6
143		21		18		-1		360		720		 2		6
144		12		44		-1		360		720		 2		6
145		17		18		-1		360		720		 2		6
146		27		6		-1		152		272		 2		6
147		22		38		-1		428		668		 2		6
148		42		26		-1		360		720		 2		6
149		10		15		-1		0		360		 2		6
150		44		29		-1		562		682		 2		6
151		12		25		-1		0		360		 2		6
152		29		22		-1		360		720		 2		6
153		1		19		-1		30		150		 2		6
154		15		41		-1		289		529		 2		6
155		9		44		-1		0		360		 2		6
156		41		7		-1		430		670		 2		6
157		24		50		-1		57		297		 2		6
158		19		22		-1		471		711		 2		6
159		45		28		-1		372		612		 2		6
160		16		2		-1		360		720		 2		6
161		30		47		-1		156		396		 2		6
162		19		32		-1		590		710		 2		6
163		50		18		-1		360		720		 2		6
164		33		4		-1		456		696		 2		6
165		46		30		-1		430		550		 2		6
166		18		36		-1		251		491		 2		6
167		45		45		-1		103		223		 2		6
168		39		39		-1		405		525		 2		6
169		48		31		-1		157		397		 2		6
170		32		38		-1		0		360		 2		6
171		50		49		-1		91		331		 2		6
172		33		39		-1		484		604		 2		6
173		22		5		-1		218		458		 2		6
174		22		1		-1		360		720		 2		6
175		20		18		-1		436		556		 2		6
176		7		50		-1		576		696		 2		6
177		21		48		-1		110		230		 2		6
178		18		50		-1		0		360		 2		6
179		13		22		-1		360		720		 2		6
180		25		40		-1		441		681		 2		6
181		36		19		-1		128		248		 2		6
182		13		39		-1		0		360		 2		6
183		39		2		-1		548		668		 2		6
184		50		30		-1		0		360		 2		6
185		50		32		-1		360		720		 2		6
186		49		29		-1		360		720		 2		6
187		21		20		-1		407		647		 2		6
188		48		8		-1		0		360		 2		6
189		28		38		-1		393		513		 2		6
190		13		27		-1		498		618		 2		6
191		33		37		-1		363		483		 2		6
192		6		23		-1		360		720		 2		6
193		20		27		-1		228		348		 2		6
194		10		23		-1		0		360		 2		6
195		15		10		-1		20		260		 2		6
196		8		39		-1		360		720		 2		6
197		43		25		-1		281		521		 2		6
198		3		27		-1		578		698		 2		6
199		15		17		-1		360		720		 2		6
200		3		16		-1		106		226		 2		6
201		50		33		-1		0		360		 2		6
202		16		24		-1		0		360		 2		6
203		33		4		-1		360		720		 2		6
204		16		41		-1		400		520		 2		6
205		32		31		-1		360		720		 2		6
206		32		18		-1		0		360		 2		6
207		4		34		-1		360		720		 2		6
208		50		34		-1		360		720		 2		6
209		40		6		-1		0		360		 2		6
210		29		30		-1		360		720		 2		6
211		20		41		-1		178		418		 2		6
212		17		44		-1		360		720		 2		6
213		9		49		-1		0		360		 2		6
214		8		36		-1		360		720		 2		6
215		19		4		-1		416		536		 2		6
216		42		28		-1		360		720		 2		6
217		43		37		-1		360		720		 2		6
218		46		31		-1		147		387		 2		6
219		48		8		-1		360		720		 2		6
220		7		45		-1		360		720		 2		6
221		5		33		-1		313		553		 2		6
222		14		28		-1		453		573		 2		6
223		26		35		-1		360		720		 2		6
224		42		37		-1		360		720		 2		6
225		38		43		-1		385		625		 2		6
226		14		22		-1		93		213		 2		6
227		25		16		-1		343		583		 2		6
228		23		12		-1		0		360		 2		6
229		32		13		-1		311		551		 2		6
230		2		47		-1		360		720		 2		6
231		17		12		-1		360		720		 2		6
232		50		31		-1		498		618		 2		6
233		15		17		-1		360		720		 2		6
234		7		27		-1		360		720		 2		6
235		12		36		-1		0		360		 2		6
236		45		14		-1		0		360		 2		6
237		13		1		-1		345		585		 2		6
238		36		11		-1		360		720		 2		6
239		46		26		-1		217		337		 2		6
240		13		23		-1		0		360		 2		6
241		12		37		-1		360		720		 2		6
242		20		3		-1		566		686		 2		6
243		26		12		-1		155		275		 2		6
244		36		30		-1		360		720		 2		6
245		28		21		-1		583		703		 2		6
246		7		48		-1		71		191		 2		6
247		45		1		-1		0		360		 2		6
248		14		10		-1		0		360		 2		6
249		27		29		-1		360		720		 2		6
250		2		46		-1		360		720		 2		6
251		39		26		-1		181		301		 2		6
252		17		43		-1		360		720		 2		6
253		17		44		-1		330		570		 2		6
254		21		17		-1		360		720		 2		6
255		33		13		-1		292		532		 2		6
256		37		44		-1		407		527		 2		6
257		42		46		-1		487		607		 2		6
258		31		6		-1		90		210		 2		6
259		25		17		-1		336		576		 2		6
260		41		7		-1		61		181		 2		6
261		14		44		-1		101		221		 2		6
262		29		1		-1		0		360		 2		6
263		3		23		-1		0		360		 2		6
264		34		50		-1		175		415		 2		6
265		43		27		-1		108		228		 2		6
266		35		21		-1		101		341		 2		6
267		38		14		-1		240		360		 2		6
268		42		14		-1		151		391		 2		6
269		12		30		-1		284		524		 2		6
270		47		37		-1		183		423		 2		6
271		18		15		-1		81		321		 2		6
272		42		11		-1		231		351		 2		6
273		32		12		-1		0		360		 2		6
274		42		44		-1		360		720		 2		6
275		14		39		-1		164		284		 2		6
276		4		24		-1		360		720		 2		6
277		43		5		-1		345		585		 2		6
278		8		20		-1		360		720		 2		6
279		8		38		-1		216		336		 2		6
280		46		40		-1		205		325		 2		6
281		27		19		-1		471		711		 2		6
282		13		19		-1		167		407		 2		6
283		39		1		-1		0		360		 2		6
284		18		44		-1		406		526		 2		6
285		22		29		-1		45		165		 2		6
286		23		20		-1		239		359		 2		6
287		50		34		-1		366		486		 2		6
288		32		49		-1		437		677		 2		6
289		27		40		-1		0		360		 2		6
290		28		35		-1		197		437		 2		6
291		15		4		-1		0		360		 2		6
292		46		35		-1		0		360		 2		6
293		39		15		-1		360		720		 2		6
294		9		4		-1		0		360		 2		6
295		44		14		-1		128		368		 2		6
296		48		1		-1		360		720		 2		6
297		34		22		-1		360		720		 2		6
298		28		26		-1		170		290		 2		6
299		37		16		-1		504		624		 2		6
300		45		46		-1		191		431		 2		6
301		6		40		-1		360		720		 2		6
302		6		16		-1		370		490		 2		6
303		34		10		-1		0		360		 2		6
304		11		22		-1		0		360		 2		6
305		20		24		-1		129		249		 2		6
306		13		3		-1		0		360		 2		6
307		26		20		-1		210		330		 2		6
308		41		46		-1		516		636		 2		6
309		50		40		-1		95		215		 2		6
310		11		26		-1		91		211		 2		6
311		46		28		-1		360		720		 2		6
312		27		7		-1		122		242		 2		6
313		18		1		-1		493		613		 2		6
314		43		26		-1		576		696		 2		6
315		13		46		-1		65		185		 2		6
316		36		30		-1		14		134		 2		6
317		47		41		-1		360		720		 2		6
318		7		34		-1		0		360		 2		6
319		2		47		-1		94		214		 2		6
320		40		26		-1		539		659		 2		6
321		16		16		-1		0		360		 2		6
322		24		2		-1		383		503		 2		6
323		16		32		-1		360		720		 2		6
324		4		50		-1		425		545		 2		6
325		27		14		-1		110		230		 2		6
326		46		8		-1		360		480		 2		6
327		23		23		-1		0		360		 2		6
328		3		37		-1		0		360		 2		6
329		26		13		-1		360		720		 2		6
330		22		14		-1		565		685		 2		6
331		7		32		-1		360		720		 2		6
332		4		41		-1		112		232		 2		6
333		45		17		-1		0		360		 2		6
334		34		41		-1		360		720		 2		6
335		36		49		-1		496		616		 2		6
336		50		22		-1		0		360		 2		6
337		44		2		-1		507		627		 2		6
338		45		49		-1		421		541		 2		6
339		42		28		-1		360		720		 2		6
340		5		15		-1		411		651		 2		6
341		24		23		-1		589		709		 2		6
342		25		10		-1		3		123		 2		6
343		6		17		-1		27		147		 2		6
344		31		32		-1		0		360		 2		6
345		38		9		-1		360		720		 2		6
346		5		13		-1		82		202		 2		6
347		27		11		-1		0		360		 2		6
348		30		37		-1		404		644		 2		6
349		9		34		-1		476		596		 2		6
350		20		49		-1		360		720		 2		6
351		49		19		-1		142		262		 2		6
352		36		30		-1		360		720		 2		6
353		18		43		-1		388		508		 2		6
354		3		24		-1		421		661		 2		6
355		8		23		-1		405		525		 2		6
356		34		49		-1		0		360		 2		6
357		50		48		-1		0		360		 2		6
358		32		44		-1		360		720		 2		6
359		32		21		-1		360		720		 2		6
360		13		39		-1		512		632		 2		6
361		6		49		-1		90		210		 2		6
362		45		45		-1		8		248		 2		6
363		34		32		-1		0		360		 2		6
364		48		45		-1		20		260		 2		6
365		46		49		-1		493		613		 2		6
366		48		36		-1		474		594		 2		6
367		48		30		-1		456		576		 2		6
368		50		48		-1		432		552		 2		6
369		2		41		-1		0		360		 2		6
370		26		10		-1		360		720		 2		6
371		39		8		-1		599		719		 2		6
372		31		22		-1		244		484		 2		6
373		2		21		-1		360		720		 2		6
374		3		39		-1		63		183		 2		6
375		42		47		-1		0		360		 2		6
376		5		8		-1		567		687		 2		6
377		36		17		-1		210		330		 2		6
378		45		32		-1		484		604		 2		6
379		46		23		-1		120		240		 2		6
380		21		36		-1		543		663		 2		6
381		23		40		-1		360		720		 2		6
382		32		25		-1		360		720		 2		6
383		32		7		-1		0		360		 2		6
384		22		13		-1		221		341		 2		6
385		37		39		-1		519		639		 2		6
386		17		7		-1		0		360		 2		6
387		29		46		-1		415		535		 2		6
388		3		12		-1		445		685		 2		6
389		28		16		-1		360		720		 2		6
390		7		29		-1		360		720		 2		6
391		4		47		-1		0		360		 2		6
392		3		5		-1		159		279		 2		6
393		36		38		-1		372		492		 2		6
394		42		43		-1		453		573		 2		6
395		40		33		-1		360		720		 2		6
396		8		24		-1		76		196		 2		6
397		11		3		-1		360		720		 2		6
398		29		12		-1		360		720		 2		6
399		2		12		-1		493		613		 2		6
400		21		15		-1		584		704		 2		6
401		38		45		5		149		629		 1		4
402		8		35		5		176		656		 1		4
403		5		37		3		0		720		 1		4
404		44		9		4		0		720		 1		4
405		26		43		5		46		526		 1		4
406		32		36		5		233		713		 1		4
407		8		32		5		0		720		 1		4
408		40		9		5		56		536		 1		4
409		13		40		5		11		491		 1		4
410		17		14		5		21		501		 1		4
411		37		45		5		0		720		 1		4
412		11		19		5		0		720		 1		4
413		44		28		4		0		720		 1		4
414		10		24		5		0		720		 1		4
415		35		14		5		0		720		 1		4
416		26		31		5		10		490		 1		4
417		18		24		5		240		720		 1		4
418		26		42		5		149		629		 1		4
419		20		37		4		0		720		 1		4
420		45		28		5		127		607		 1		4
421		31		27		5		0		720		 1		4
422		17		11		3		0		720		 1		4
423		15		25		4		0		720		 1		4
424		12		18		5		124		604		 1		4
425		28		37		5		32		512		 1		4
426		12		31		4		0		720		 1		4
427		19		30		5		0		720		 1		4
428		38		18		5		0		720		 1		4
429		12		36		3		0		720		 1		4
430		28		36		3		0		720		 1		4
431		19		16		3		0		720		 1		4
432		5		29		5		228		708		 1		4
433		44		16		3		0		720		 1		4
434		24		44		5		0		720		 1		4
435		22		25		5		39		519		 1		4
436		16		5		5		27		507		 1		4
437		29		7		4		0		720		 1		4
438		8		22		3		0		720		 1		4
439		39		38		5		96		576		 1		4
440		33		10		5		187		667		 1		4
441		28		30		5		172		652		 1		4
442		17		12		5		19		499		 1		4
443		28		26		3		0		720		 1		4
444		11		16		5		110		590		 1		4
445		18		23		5		58		538		 1		4
446		37		41		5		208		688		 1		4
447		9		11		5		127		607		 1		4
448		7		16		3		0		720		 1		4
449		37		17		5		240		720		 1		4
450		21		36		4		0		720		 1		4
451		37		42		5		0		720		 1		4
452		21		42		4		0		720		 1		4
453		5		44		5		66		546		 1		4
454		16		43		5		0		720		 1		4
455		20		22		4		0		720		 1		4
456		22		13		5		201		681		 1		4
457		41		23		5		0		720		 1		4
458		11		9		3		0		720		 1		4
459		10		41		5		220		700		 1		4
460		20		5		4		0		720		 1		4
461		12		17		5		0		720		 1		4
462		19		26		4		0		720		 1		4
463		16		19		4		0		720		 1		4
464		9		29		5		214		694		 1		4
465		15		13		5		126		606		 1		4
466		8		45		5		70		550		 1		4
467		41		29		4		0		720		 1		4
468		26		40		5		176		656		 1		4
469		27		13		5		0		720		 1		4
470		42		13		5		0		720		 1		4
471		21		32		5		162		642		 1		4
472		28		29		5		46		526		 1		4
473		24		35		5		236		716		 1		4
474		8		45		4		0		720		 1		4
475		41		27		5		117		597		 1		4
476		29		31		5		0		720		 1		4
477		24		24		5		0		720		 1		4
478		11		10		4		0		720		 1		4
479		27		17		5		0		720		 1		4
480		5		40		4		0		720		 1		4
OPTION  LOCATION  CUSTOMER  PRIO  SERVICETIME   COST
0		422		0		0		2		0
1		478		1		0		2		0
2		435		2		0		2		0
3		452		3		0		2		0
4		429		4		0		2		0
5		475		5		0		2		0
6		462		6		0		2		0
7		449		7		0		2		0
8		451		8		0		2		0
9		442		9		0		2		0
10		435		10		0		2		0
11		471		11		0		2		0
12		448		12		0		2		0
13		478		13		0		2		0
14		453		14		0		2		0
15		415		15		0		2		0
16		447		16		0		2		0
17		475		17		0		2		0
18		415		18		0		2		0
19		479		19		0		2		0
20		418		20		0		2		0
21		402		21		0		2		0
22		406		22		0		2		0
23		418		23		0		2		0
24		426		24		0		2		0
25		475		25		0		2		0
26		410		26		0		2		0
27		455		27		0		2		0
28		403		28		0		2		0
29		445		29		0		2		0
30		467		30		0		2		0
31		405		31		0		2		0
32		450		32		0		2		0
33		409		33		0		2		0
34		441		34		0		2		0
35		448		35		0		2		0
36		470		36		0		2		0
37		475		37		0		2		0
38		425		38		0		2		0
39		450		39		0		2		0
40		446		40		0		2		0
41		418		41		0		2		0
42		442		42		0		2		0
43		476		43		0		2		0
44		420		44		0		2		0
45		442		45		0		2		0
46		419		46		0		2		0
47		477		47		0		2		0
48		418		48		0		2		0
49		473		49		0		2		0
50		471		50		0		2		0
51		415		51		0		2		0
52		476		52		0		2		0
53		477		53		0		2		0
54		446		54		0		2		0
55		417		55		0		2		0
56		429		56		0		2		0
57		426		57		0		2		0
58		411		58		0		2		0
59		461		59		0		2		0
60		406		60		0		2		0
61		467		61		0		2		0
62		424		62		0		2		0
63		401		63		0		2		0
64		476		64		0		2		0
65		418		65		0		2		0
66		430		66		0		2		0
67		452		67		0		2		0
68		458		68		0		2		0
69		411		69		0		2		0
70		477		70		0		2		0
71		450		71		0		2		0
72		457		72		0		2		0
73		423		73		0		2		0
74		408		74		0		2		0
75		403		75		0		2		0
76		406		76		0		2		0
77		410		77		0		2		0
78		452		78		0		2		0
79		410		79		0		2		0
80		1		80		0		5		0
81		2		81		0		5		0
82		3		82		0		5		0
83		4		83		0		5		0
84		5		84		0		5		0
85		6		85		0		5		0
86		7		86		0		5		0
87		8		87		0		5		0
88		9		88		0		5		0
89		10		89		0		5		0
90		11		90		0		5		0
91		12		91		0		5		0
92		13		92		0		5		0
93		14		93		0		5		0
94		15		94		0		5		0
95		16		95		0		5		0
96		17		96		0		5		0
97		18		97		0		5		0
98		19		98		0		5		0
99		20		99		0		5		0
100		21		100		0		5		0
101		22		101		0		5		0
102		23		102		0		5		0
103		24		103		0		5		0
104		25		104		0		5		0
105		26		105		0		5		0
106		27		106		0		5		0
107		28		107		0		5		0
108		29		108		0		5		0
109		30		109		0		5		0
110		31		110		0		5		0
111		32		111		0		5		0
112		33		112		0		5		0
113		34		113		0		5		0
114		35		114		0		5		0
115		36		115		0		5		0
116		37		116		0		5		0
117		38		117		0		5		0
118		39		118		0		5		0
119		40		119		0		5		0
120		41		120		0		5		0
121		42		121		0		5		0
122		43		122		0		5		0
123		44		123		0		5		0
124		45		124		0		5		0
125		46		125		0		5		0
126		47		126		0		5		0
127		48		127		0		5		0
128		49		128		0		5		0
129		50		129		0		5		0
130		51		130		0		5		0
131		52		131		0		5		0
132		53		132		0		5		0
133		54		133		0		5		0
134		55		134		0		5		0
135		56		135		0		5		0
136		57		136		0		5		0
137		58		137		0		5		0
138		59		138		0		5		0
139		60		139		0		5		0
140		61		140		0		5		0
141		62		141		0		5		0
142		63		142		0		5		0
143		64		143		0		5		0
144		65		144		0		5		0
145		66		145		0		5		0
146		67		146		0		5		0
147		68		147		0		5		0
148		69		148		0		5		0
149		70		149		0		5		0
150		71		150		0		5		0
151		72		151		0		5		0
152		73		152		0		5		0
153		74		153		0		5		0
154		75		154		0		5		0
155		76		155		0		5		0
156		77		156		0		5		0
157		78		157		0		5		0
158		79		158		0		5		0
159		80		159		0		5		0
160		81		160		1		5		0
161		434		160		0		2		0
162		82		161		1		5		0
163		480		161		0		2		0
164		83		162		0		5		0
165		423		162		1		2		0
166		84		163		1		5		0
167		415		163		0		2		0
168		85		164		1		5		0
169		413		164		0		2		0
170		86		165		0		5		0
171		409		165		1		2		0
172		87		166		1		5		0
173		407		166		0		2		0
174		88		167		0		5		0
175		447		167		1		2		0
176		89		168		1		5		0
177		468		168		0		2		0
178		90		169		0		5		0
179		471		169		1		2		0
180		91		170		1		5		0
181		435		170		0		2		0
182		92		171		0		5		0
183		453		171		1		2		0
184		93		172		0		5		0
185		448		172		1		2		0
186		94		173		1		5		0
187		447		173		0		2		0
188		95		174		1		5		0
189		479		174		0		2		0
190		96		175		0		5		0
191		452		175		1		2		0
192		97		176		0		5		0
193		411		176		1		2		0
194		98		177		1		5		0
195		465		177		0		2		0
196		99		178		1		5		0
197		469		178		0		2		0
198		100		179		0		5		0
199		420		179		1		2		0
200		101		180		1		5		0
201		475		180		0		2		0
202		102		181		0		5		0
203		465		181		1		2		0
204		103		182		0		5		0
205		433		182		1		2		0
206		104		183		0		5		0
207		431		183		1		2		0
208		105		184		1		5		0
209		476		184		0		2		0
210		106		185		0		5		0
211		406		185		1		2		0
212		107		186		0		5		0
213		451		186		1		2		0
214		108		187		0		5		0
215		439		187		1		2		0
216		109		188		0		5		0
217		428		188		1		2		0
218		110		189		1		5		0
219		457		189		0		2		0
220		111		190		0		5		0
221		442		190		1		2		0
222		112		191		1		5		0
223		446		191		0		2		0
224		113		192		1		5		0
225		429		192		0		2		0
226		114		193		0		5		0
227		447		193		1		2		0
228		115		194		1		5		0
229		467		194		0		2		0
230		116		195		0		5		0
231		446		195		1		2		0
232		117		196		1		5		0
233		471		196		0		2		0
234		118		197		0		5		0
235		464		197		1		2		0
236		119		198		0		5		0
237		456		198		1		2		0
238		120		199		0		5		0
239		446		199		1		2		0
240		121		200		0		5		0
241		421		200		1		2		0
242		122		201		0		5		0
243		447		201		1		2		0
244		123		202		1		5		0
245		430		202		0		2		0
246		124		203		1		5		0
247		441		203		0		2		0
248		125		204		1		5		0
249		447		204		0		2		0
250		126		205		1		5		0
251		408		205		0		2		0
252		127		206		0		5		0
253		458		206		1		2		0
254		128		207		0		5		0
255		445		207		1		2		0
256		129		208		0		5		0
257		416		208		1		2		0
258		130		209		1		5		0
259		415		209		0		2		0
260		131		210		1		5		0
261		435		210		0		2		0
262		132		211		0		5		0
263		439		211		1		2		0
264		133		212		0		5		0
265		440		212		1		2		0
266		134		213		0		5		0
267		461		213		1		2		0
268		135		214		1		5		0
269		431		214		0		2		0
270		136		215		0		5		0
271		421		215		1		2		0
272		137		216		0		5		0
273		427		216		1		2		0
274		138		217		1		5		0
275		457		217		0		2		0
276		139		218		0		5		0
277		413		218		1		2		0
278		140		219		0		5		0
279		462		219		1		2		0
280		141		220		0		5		0
281		421		220		1		2		0
282		142		221		1		5		0
283		409		221		0		2		0
284		143		222		0		5		0
285		410		222		1		2		0
286		144		223		1		5		0
287		413		223		0		2		0
288		145		224		0		5		0
289		410		224		1		2		0
290		146		225		1		5		0
291		440		225		0		2		0
292		147		226		0		5		0
293		415		226		1		2		0
294		148		227		1		5		0
295		457		227		0		2		0
296		149		228		0		5		0
297		408		228		1		2		0
298		150		229		1		5		0
299		469		229		0		2		0
300		151		230		1		5		0
301		426		230		0		2		0
302		152		231		1		5		0
303		421		231		0		2		0
304		153		232		0		5		0
305		479		232		1		2		0
306		154		233		0		5		0
307		472		233		1		2		0
308		155		234		1		5		0
309		418		234		0		2		0
310		156		235		0		5		0
311		440		235		1		2		0
312		157		236		1		5		0
313		416		236		0		2		0
314		158		237		0		5		0
315		458		237		1		2		0
316		159		238		0		5		0
317		431		238		1		2		0
318		160		239		1		5		0
319		401		239		0		2		0
320		161		240		2		5		0
321		473		240		0		2		0
322		453		240		1		2		0
323		162		241		0		5		0
324		450		241		2		2		0
325		405		241		1		2		0
326		163		242		0		5		0
327		420		242		2		2		0
328		471		242		1		2		0
329		164		243		1		5		0
330		415		243		2		2		0
331		458		243		0		2		0
332		165		244		2		5		0
333		413		244		0		2		0
334		475		244		1		2		0
335		166		245		0		5		0
336		419		245		1		2		0
337		424		245		2		2		0
338		167		246		0		5		0
339		446		246		1		2		0
340		471		246		2		2		0
341		168		247		2		5		0
342		439		247		0		2		0
343		433		247		1		2		0
344		169		248		0		5		0
345		457		248		1		2		0
346		467		248		2		2		0
347		170		249		2		5		0
348		425		249		1		2		0
349		406		249		0		2		0
350		171		250		1		5		0
351		478		250		0		2		0
352		436		250		2		2		0
353		172		251		1		5		0
354		425		251		2		2		0
355		457		251		0		2		0
356		173		252		2		5		0
357		437		252		0		2		0
358		460		252		1		2		0
359		174		253		1		5		0
360		437		253		0		2		0
361		436		253		2		2		0
362		175		254		1		5		0
363		410		254		2		2		0
364		455		254		0		2		0
365		176		255		2		5		0
366		453		255		0		2		0
367		434		255		1		2		0
368		177		256		0		5		0
369		471		256		2		2		0
370		447		256		1		2		0
371		178		257		0		5		0
372		405		257		2		2		0
373		454		257		1		2		0
374		179		258		0		5		0
375		423		258		1		2		0
376		438		258		2		2		0
377		180		259		0		5		0
378		425		259		2		2		0
379		417		259		1		2		0
380		181		260		2		5		0
381		470		260		0		2		0
382		410		260		1		2		0
383		182		261		2		5		0
384		459		261		1		2		0
385		425		261		0		2		0
386		183		262		0		5		0
387		405		262		2		2		0
388		408		262		1		2		0
389		184		263		2		5		0
390		457		263		1		2		0
391		467		263		0		2		0
392		185		264		1		5		0
393		475		264		2		2		0
394		434		264		0		2		0
395		186		265		1		5		0
396		457		265		2		2		0
397		447		265		0		2		0
398		187		266		1		5		0
399		477		266		2		2		0
400		446		266		0		2		0
401		188		267		2		5		0
402		431		267		0		2		0
403		401		267		1		2		0
404		189		268		0		5		0
405		406		268		2		2		0
406		439		268		1		2		0
407		190		269		0		5		0
408		450		269		1		2		0
409		420		269		2		2		0
410		191		270		2		5		0
411		451		270		0		2		0
412		468		270		1		2		0
413		192		271		2		5		0
414		412		271		0		2		0
415		405		271		1		2		0
416		193		272		0		5		0
417		462		272		1		2		0
418		440		272		2		2		0
419		194		273		0		5		0
420		424		273		2		2		0
421		437		273		1		2		0
422		195		274		0		5		0
423		458		274		1		2		0
424		403		274		2		2		0
425		196		275		2		5		0
426		402		275		1		2		0
427		467		275		0		2		0
428		197		276		1		5		0
429		457		276		2		2		0
430		471		276		0		2		0
431		198		277		2		5		0
432		441		277		0		2		0
433		422		277		1		2		0
434		199		278		0		5		0
435		461		278		2		2		0
436		448		278		1		2		0
437		200		279		2		5		0
438		447		279		1		2		0
439		465		279		0		2		0
440		201		280		0		5		0
441		475		280		1		2		0
442		464		280		2		2		0
443		202		281		2		5		0
444		455		281		0		2		0
445		423		281		1		2		0
446		203		282		0		5		0
447		440		282		2		2		0
448		425		282		1		2		0
449		204		283		2		5		0
450		401		283		0		2		0
451		412		283		1		2		0
452		205		284		1		5		0
453		406		284		0		2		0
454		472		284		2		2		0
455		206		285		0		5		0
456		415		285		2		2		0
457		460		285		1		2		0
458		207		286		0		5		0
459		403		286		2		2		0
460		480		286		1		2		0
461		208		287		2		5		0
462		413		287		1		2		0
463		436		287		0		2		0
464		209		288		0		5		0
465		470		288		2		2		0
466		414		288		1		2		0
467		210		289		1		5		0
468		472		289		2		2		0
469		441		289		0		2		0
470		211		290		1		5		0
471		464		290		2		2		0
472		474		290		0		2		0
473		212		291		2		5		0
474		454		291		0		2		0
475		419		291		1		2		0
476		213		292		1		5		0
477		453		292		2		2		0
478		454		292		0		2		0
479		214		293		1		5		0
480		407		293		2		2		0
481		480		293		0		2		0
482		215		294		2		5		0
483		463		294		1		2		0
484		419		294		0		2		0
485		216		295		1		5		0
486		464		295		0		2		0
487		413		295		2		2		0
488		217		296		2		5		0
489		413		296		0		2		0
490		437		296		1		2		0
491		218		297		2		5		0
492		420		297		0		2		0
493		454		297		1		2		0
494		219		298		0		5		0
495		404		298		1		2		0
496		470		298		2		2		0
497		220		299		1		5		0
498		474		299		0		2		0
499		459		299		2		2		0
500		221		300		0		5		0
501		464		300		1		2		0
502		448		300		2		2		0
503		222		301		1		5		0
504		462		301		0		2		0
505		464		301		2		2		0
506		223		302		2		5		0
507		473		302		0		2		0
508		451		302		1		2		0
509		224		303		1		5		0
510		439		303		2		2		0
511		467		303		0		2		0
512		225		304		0		5		0
513		417		304		2		2		0
514		467		304		1		2		0
515		226		305		0		5		0
516		423		305		1		2		0
517		403		305		2		2		0
518		227		306		2		5		0
519		455		306		1		2		0
520		479		306		0		2		0
521		228		307		1		5		0
522		403		307		0		2		0
523		440		307		2		2		0
524		229		308		0		5		0
525		415		308		1		2		0
526		479		308		2		2		0
527		230		309		0		5		0
528		459		309		2		2		0
529		474		309		1		2		0
530		231		310		2		5		0
531		413		310		0		2		0
532		467		310		1		2		0
533		232		311		0		5		0
534		467		311		2		2		0
535		475		311		1		2		0
536		233		312		2		5		0
537		410		312		0		2		0
538		427		312		1		2		0
539		234		313		2		5		0
540		464		313		0		2		0
541		407		313		1		2		0
542		235		314		2		5		0
543		429		314		0		2		0
544		419		314		1		2		0
545		236		315		2		5		0
546		422		315		1		2		0
547		411		315		0		2		0
548		237		316		0		5		0
549		460		316		2		2		0
550		478		316		1		2		0
551		238		317		0		5		0
552		434		317		1		2		0
553		435		317		2		2		0
554		239		318		0		5		0
555		475		318		2		2		0
556		451		318		1		2		0
557		240		319		0		5		0
558		470		319		1		2		0
559		402		319		2		2		0
560		241		320		1		5		0
561		242		320		2		5		0
562		451		320		0		2		0
563		243		321		0		5		0
564		244		321		1		5		0
565		467		321		2		2		0
566		245		322		0		5		0
567		246		322		1		5		0
568		448		322		2		2		0
569		247		323		0		5		0
570		248		323		1		5		0
571		442		323		2		2		0
572		249		324		1		5		0
573		250		324		2		5		0
574		417		324		0		2		0
575		251		325		2		5		0
576		252		325		0		5		0
577		431		325		1		2		0
578		253		326		1		5		0
579		254		326		2		5		0
580		410		326		0		2		0
581		255		327		2		5		0
582		256		327		1		5		0
583		449		327		0		2		0
584		257		328		1		5		0
585		258		328		2		5		0
586		463		328		0		2		0
587		259		329		2		5		0
588		260		329		0		5		0
589		425		329		1		2		0
590		261		330		2		5		0
591		262		330		0		5		0
592		442		330		1		2		0
593		263		331		0		5		0
594		264		331		2		5		0
595		455		331		1		2		0
596		265		332		0		5		0
597		266		332		1		5		0
598		466		332		2		2		0
599		267		333		0		5		0
600		268		333		1		5		0
601		449		333		2		2		0
602		269		334		0		5		0
603		270		334		1		5		0
604		420		334		2		2		0
605		271		335		0		5		0
606		272		335		1		5		0
607		404		335		2		2		0
608		273		336		2		5		0
609		274		336		0		5		0
610		440		336		1		2		0
611		275		337		1		5		0
612		276		337		0		5		0
613		446		337		2		2		0
614		277		338		2		5		0
615		278		338		0		5		0
616		412		338		1		2		0
617		279		339		2		5		0
618		280		339		0		5		0
619		453		339		1		2		0
620		281		340		2		5		0
621		282		340		1		5		0
622		424		340		0		2		0
623		283		341		0		5		0
624		284		341		1		5		0
625		473		341		2		2		0
626		285		342		1		5		0
627		286		342		0		5		0
628		427		342		2		2		0
629		287		343		2		5		0
630		288		343		1		5		0
631		434		343		0		2		0
632		289		344		0		5		0
633		290		344		2		5		0
634		430		344		1		2		0
635		291		345		0		5		0
636		292		345		1		5		0
637		422		345		2		2		0
638		293		346		0		5		0
639		294		346		1		5		0
640		470		346		2		2		0
641		295		347		2		5		0
642		296		347		1		5		0
643		404		347		0		2		0
644		297		348		1		5		0
645		298		348		2		5		0
646		441		348		0		2		0
647		299		349		2		5		0
648		300		349		0		5		0
649		402		349		1		2		0
650		301		350		2		5		0
651		302		350		0		5		0
652		403		350		1		2		0
653		303		351		1		5		0
654		304		351		2		5		0
655		404		351		0		2		0
656		305		352		0		5		0
657		306		352		1		5		0
658		462		352		2		2		0
659		307		353		2		5		0
660		308		353		0		5		0
661		440		353		1		2		0
662		309		354		1		5		0
663		310		354		2		5		0
664		479		354		0		2		0
665		311		355		1		5		0
666		312		355		2		5		0
667		457		355		0		2		0
668		313		356		2		5		0
669		314		356		0		5		0
670		434		356		1		2		0
671		315		357		2		5		0
672		316		357		0		5		0
673		466		357		1		2		0
674		317		358		1		5		0
675		318		358		0		5		0
676		404		358		2		2		0
677		319		359		2		5		0
678		320		359		0		5		0
679		475		359		1		2		0
680		321		360		2		5		0
681		322		360		1		5		0
682		431		360		0		2		0
683		323		361		2		5		0
684		324		361		1		5		0
685		479		361		0		2		0
686		325		362		2		5		0
687		326		362		0		5		0
688		431		362		1		2		0
689		327		363		1		5		0
690		328		363		0		5		0
691		435		363		2		2		0
692		329		364		0		5		0
693		330		364		1		5		0
694		456		364		2		2		0
695		331		365		1		5		0
696		332		365		2		5		0
697		407		365		0		2		0
698		333		366		1		5		0
699		334		366		2		5		0
700		462		366		0		2		0
701		335		367		0		5		0
702		336		367		2		5		0
703		446		367		1		2		0
704		337		368		2		5		0
705		338		368		1		5		0
706		458		368		0		2		0
707		339		369		0		5		0
708		340		369		1		5		0
709		465		369		2		2		0
710		341		370		2		5		0
711		342		370		1		5		0
712		428		370		0		2		0
713		343		371		2		5		0
714		344		371		1		5		0
715		476		371		0		2		0
716		345		372		1		5		0
717		346		372		2		5		0
718		470		372		0		2		0
719		347		373		1		5		0
720		348		373		2		5		0
721		452		373		0		2		0
722		349		374		0		5		0
723		350		374		1		5		0
724		439		374		2		2		0
725		351		375		1		5		0
726		352		375		0		5		0
727		467		375		2		2		0
728		353		376		0		5		0
729		354		376		2		5		0
730		436		376		1		2		0
731		355		377		1		5		0
732		356		377		2		5		0
733		401		377		0		2		0
734		357		378		0		5		0
735		358		378		1		5		0
736		411		378		2		2		0
737		359		379		2		5		0
738		360		379		0		5		0
739		459		379		1		2		0
740		361		380		0		5		0
741		362		380		1		5		0
742		474		380		2		2		0
743		363		381		0		5		0
744		364		381		2		5		0
745		423		381		1		2		0
746		365		382		1		5		0
747		366		382		0		5		0
748		448		382		2		2		0
749		367		383		2		5		0
750		368		383		0		5		0
751		457		383		1		2		0
752		369		384		2		5		0
753		370		384		0		5		0
754		469		384		1		2		0
755		371		385		2		5		0
756		372		385		1		5		0
757		443		385		0		2		0
758		373		386		2		5		0
759		374		386		0		5		0
760		401		386		1		2		0
761		375		387		0		5		0
762		376		387		2		5		0
763		478		387		1		2		0
764		377		388		2		5		0
765		378		388		0		5		0
766		428		388		1		2		0
767		379		389		1		5		0
768		380		389		0		5		0
769		473		389		2		2		0
770		381		390		1		5		0
771		382		390		2		5		0
772		452		390		0		2		0
773		383		391		0		5		0
774		384		391		2		5		0
775		469		391		1		2		0
776		385		392		1		5		0
777		386		392		0		5		0
778		405		392		2		2		0
779		387		393		1		5		0
780		388		393		0		5		0
781		418		393		2		2		0
782		389		394		2		5		0
783		390		394		0		5		0
784		426		394		1		2		0
785		391		395		2		5		0
786		392		395		0		5		0
787		427		395		1		2		0
788		393		396		1		5		0
789		394		396		2		5		0
790		451		396		0		2		0
791		395		397		2		5		0
792		396		397		1		5		0
793		453		397		0		2		0
794		397		398		1		5		0
795		398		398		0		5		0
796		440		398		2		2		0
797		399		399		1		5		0
798		400		399		2		5		0
799		466		399		0		2		0
